\ Generated by MPModelProtoExporter
\   Name             : SCIP
\   Format           : Free
\   Constraints      : 45
\   Variables        : 465
\     Binary         : 465
\     Integer        : 0
\     Continuous     : 0
Minimize
 Obj: +70 x[0,0] +43 x[1,0] +36 x[2,0] +92 x[3,0] +82 x[4,0] +19 x[5,0] +71 x[6,0] +11 x[7,0] +53 x[8,0] +35 x[9,0] +52 x[10,0] +4 x[11,0] +21 x[12,0] +89 x[13,0] +99 x[14,0] +68 x[15,0] +8 x[16,0] +78 x[17,0] +46 x[18,0] +69 x[19,0] +99 x[20,0] +29 x[21,0] +59 x[22,0] +45 x[23,0] +85 x[24,0] +69 x[25,0] +77 x[26,0] +50 x[27,0] +52 x[28,0] +85 x[29,0] +15 x[0,1] +35 x[1,1] +23 x[2,1] +96 x[3,1] +8 x[4,1] +8 x[5,1] +35 x[6,1] +41 x[7,1] +93 x[8,1] +20 x[9,1] +40 x[10,1] +75 x[11,1] +98 x[12,1] +39 x[13,1] +39 x[14,1] +17 x[15,1] +3 x[16,1] +21 x[17,1] +79 x[18,1] +89 x[19,1] +16 x[20,1] +87 x[21,1] +34 x[22,1] +61 x[23,1] +91 x[24,1] +30 x[25,1] +57 x[26,1] +88 x[27,1] +36 x[28,1] +83 x[29,1] +76 x[0,2] +60 x[1,2] +84 x[2,2] +42 x[3,2] +3 x[4,2] +30 x[5,2] +35 x[6,2] +30 x[7,2] +94 x[8,2] +71 x[9,2] +74 x[10,2] +97 x[11,2] +25 x[12,2] +19 x[13,2] +38 x[14,2] +47 x[15,2] +15 x[16,2] +3 x[17,2] +37 x[18,2] +97 x[19,2] +28 x[20,2] +88 x[21,2] +68 x[22,2] +49 x[23,2] +56 x[24,2] +18 x[25,2] +90 x[26,2] +40 x[27,2] +97 x[28,2] +28 x[29,2] +3 x[0,3] +45 x[1,3] +74 x[2,3] +73 x[3,3] +80 x[4,3] +90 x[5,3] +45 x[6,3] +81 x[7,3] +19 x[8,3] +84 x[9,3] +93 x[10,3] +49 x[11,3] +44 x[13,3] +90 x[14,3] +24 x[15,3] +52 x[16,3] +47 x[17,3] +67 x[18,3] +3 x[19,3] +17 x[20,3] +7 x[21,3] +36 x[22,3] +97 x[23,3] +37 x[24,3] +20 x[25,3] +92 x[26,3] +9 x[27,3] +23 x[28,3] +4 x[29,3] +23 x[0,4] +23 x[1,4] +98 x[2,4] +79 x[3,4] +98 x[4,4] +59 x[5,4] +24 x[6,4] +95 x[7,4] +81 x[8,4] +44 x[9,4] +10 x[10,4] +26 x[11,4] +45 x[12,4] +23 x[13,4] +7 x[14,4] +99 x[16,4] +6 x[17,4] +65 x[18,4] +77 x[19,4] +61 x[20,4] +49 x[21,4] +10 x[22,4] +91 x[23,4] +3 x[24,4] +72 x[25,4] +80 x[26,4] +28 x[27,4] +58 x[28,4] +79 x[29,4] +65 x[0,5] +93 x[1,5] +61 x[2,5] +42 x[3,5] +17 x[4,5] +39 x[5,5] +61 x[6,5] +95 x[7,5] +34 x[8,5] +30 x[9,5] +91 x[10,5] +10 x[11,5] +28 x[12,5] +75 x[13,5] +44 x[14,5] +16 x[15,5] +73 x[16,5] +3 x[17,5] +99 x[18,5] +11 x[19,5] +72 x[20,5] +92 x[21,5] +44 x[22,5] +51 x[23,5] +36 x[24,5] +32 x[25,5] +48 x[26,5] +8 x[27,5] +61 x[28,5] +72 x[29,5] +13 x[0,6] +41 x[1,6] +88 x[2,6] +26 x[3,6] +61 x[4,6] +23 x[5,6] +2 x[6,6] +48 x[7,6] +14 x[8,6] +9 x[9,6] +26 x[10,6] +8 x[11,6] +55 x[12,6] +13 x[13,6] +7 x[14,6] +60 x[15,6] +99 x[16,6] +34 x[17,6] +55 x[18,6] +73 x[19,6] +15 x[20,6] +12 x[21,6] +62 x[22,6] +14 x[23,6] +69 x[24,6] +68 x[25,6] +89 x[26,6] +6 x[27,6] +16 x[28,6] +15 x[29,6] +16 x[0,7] +88 x[1,7] +61 x[2,7] +65 x[3,7] +20 x[4,7] +16 x[5,7] +93 x[6,7] +64 x[7,7] +83 x[8,7] +1 x[9,7] +18 x[10,7] +14 x[11,7] +25 x[12,7] +41 x[13,7] +20 x[14,7] +8 x[15,7] +9 x[16,7] +94 x[17,7] +79 x[18,7] +4 x[19,7] +42 x[20,7] +86 x[21,7] +48 x[22,7] +62 x[23,7] +51 x[24,7] +22 x[25,7] +75 x[26,7] +84 x[27,7] +49 x[28,7] +47 x[29,7] +7 x[0,8] +31 x[1,8] +94 x[2,8] +80 x[3,8] +91 x[4,8] +51 x[5,8] +30 x[6,8] +51 x[7,8] +17 x[8,8] +44 x[9,8] +85 x[10,8] +85 x[11,8] +32 x[12,8] +73 x[13,8] +85 x[14,8] +84 x[15,8] +87 x[16,8] +86 x[17,8] +52 x[18,8] +47 x[19,8] +67 x[20,8] +11 x[21,8] +6 x[22,8] +93 x[23,8] +57 x[24,8] +47 x[25,8] +81 x[26,8] +98 x[27,8] +74 x[28,8] +62 x[29,8] +90 x[0,9] +71 x[1,9] +4 x[2,9] +83 x[3,9] +28 x[4,9] +92 x[5,9] +60 x[6,9] +92 x[7,9] +19 x[8,9] +13 x[9,9] +47 x[10,9] +94 x[11,9] +30 x[12,9] +51 x[13,9] +1 x[14,9] +20 x[15,9] +4 x[16,9] +41 x[17,9] +63 x[18,9] +26 x[19,9] +82 x[20,9] +72 x[21,9] +95 x[22,9] +25 x[23,9] +89 x[24,9] +25 x[25,9] +11 x[26,9] +22 x[27,9] +4 x[28,9] +5 x[29,9] +41 x[0,10] +65 x[1,10] +17 x[2,10] +35 x[3,10] +97 x[4,10] +83 x[5,10] +95 x[6,10] +31 x[7,10] +43 x[8,10] +86 x[9,10] +3 x[10,10] +61 x[11,10] +50 x[12,10] +30 x[13,10] +24 x[14,10] +95 x[15,10] +84 x[16,10] +11 x[17,10] +98 x[18,10] +7 x[19,10] +65 x[20,10] +10 x[21,10] +7 x[22,10] +37 x[23,10] +51 x[24,10] +76 x[25,10] +1 x[26,10] +87 x[27,10] +21 x[28,10] +53 x[29,10] +46 x[0,11] +81 x[1,11] +13 x[2,11] +28 x[3,11] +62 x[4,11] +62 x[5,11] +39 x[6,11] +71 x[7,11] +17 x[8,11] +71 x[9,11] +78 x[10,11] +88 x[11,11] +32 x[12,11] +60 x[13,11] +98 x[14,11] +24 x[15,11] +18 x[17,11] +36 x[18,11] +57 x[19,11] +1 x[20,11] +11 x[21,11] +99 x[22,11] +58 x[23,11] +28 x[24,11] +51 x[25,11] +59 x[26,11] +26 x[27,11] +75 x[28,11] +49 x[29,11] +58 x[0,12] +63 x[1,12] +32 x[2,12] +6 x[3,12] +48 x[4,12] +71 x[5,12] +82 x[6,12] +71 x[7,12] +78 x[8,12] +53 x[9,12] +9 x[10,12] +23 x[11,12] +56 x[12,12] +94 x[13,12] +17 x[14,12] +41 x[15,12] +90 x[16,12] +35 x[17,12] +57 x[18,12] +81 x[19,12] +38 x[20,12] +60 x[21,12] +87 x[22,12] +36 x[23,12] +58 x[24,12] +23 x[25,12] +38 x[26,12] +80 x[27,12] +84 x[28,12] +49 x[29,12] +53 x[0,13] +82 x[1,13] +71 x[2,13] +29 x[3,13] +25 x[4,13] +28 x[5,13] +20 x[6,13] +32 x[7,13] +11 x[8,13] +8 x[9,13] +78 x[10,13] +25 x[11,13] +22 x[12,13] +29 x[13,13] +96 x[14,13] +83 x[15,13] +40 x[16,13] +72 x[17,13] +12 x[18,13] +26 x[19,13] +87 x[20,13] +20 x[21,13] +51 x[22,13] +96 x[23,13] +88 x[24,13] +26 x[25,13] +65 x[26,13] +65 x[27,13] +86 x[28,13] +49 x[29,13] +24 x[0,14] +72 x[1,14] +12 x[2,14] +72 x[3,14] +82 x[4,14] +26 x[5,14] +65 x[6,14] +56 x[7,14] +55 x[8,14] +8 x[9,14] +27 x[10,14] +56 x[11,14] +14 x[12,14] +19 x[13,14] +6 x[14,14] +15 x[15,14] +94 x[16,14] +9 x[17,14] +75 x[18,14] +58 x[19,14] +32 x[20,14] +91 x[22,14] +12 x[23,14] +13 x[24,14] +79 x[25,14] +15 x[26,14] +96 x[27,14] +25 x[28,14] +95 x[29,14] +686 y[0] +1472 y[1] +1628 y[2] +1183 y[3] +1585 y[4] +1291 y[5] +589 y[6] +966 y[7] +832 y[8] +1140 y[9] +961 y[10] +752 y[11] +832 y[12] +1034 y[13] +1053 y[14] 
Subject to
 auto_c_000000000: +1 x[0,0] +1 x[0,1] +1 x[0,2] +1 x[0,3] +1 x[0,4] +1 x[0,5] +1 x[0,6] +1 x[0,7] +1 x[0,8] +1 x[0,9] +1 x[0,10] +1 x[0,11] +1 x[0,12] +1 x[0,13] +1 x[0,14]  = 1
 auto_c_000000001: +1 x[1,0] +1 x[1,1] +1 x[1,2] +1 x[1,3] +1 x[1,4] +1 x[1,5] +1 x[1,6] +1 x[1,7] +1 x[1,8] +1 x[1,9] +1 x[1,10] +1 x[1,11] +1 x[1,12] +1 x[1,13] +1 x[1,14]  = 1
 auto_c_000000002: +1 x[2,0] +1 x[2,1] +1 x[2,2] +1 x[2,3] +1 x[2,4] +1 x[2,5] +1 x[2,6] +1 x[2,7] +1 x[2,8] +1 x[2,9] +1 x[2,10] +1 x[2,11] +1 x[2,12] +1 x[2,13] +1 x[2,14]  = 1
 auto_c_000000003: +1 x[3,0] +1 x[3,1] +1 x[3,2] +1 x[3,3] +1 x[3,4] +1 x[3,5] +1 x[3,6] +1 x[3,7] +1 x[3,8] +1 x[3,9] +1 x[3,10] +1 x[3,11] +1 x[3,12] +1 x[3,13] +1 x[3,14]  = 1
 auto_c_000000004: +1 x[4,0] +1 x[4,1] +1 x[4,2] +1 x[4,3] +1 x[4,4] +1 x[4,5] +1 x[4,6] +1 x[4,7] +1 x[4,8] +1 x[4,9] +1 x[4,10] +1 x[4,11] +1 x[4,12] +1 x[4,13] +1 x[4,14]  = 1
 auto_c_000000005: +1 x[5,0] +1 x[5,1] +1 x[5,2] +1 x[5,3] +1 x[5,4] +1 x[5,5] +1 x[5,6] +1 x[5,7] +1 x[5,8] +1 x[5,9] +1 x[5,10] +1 x[5,11] +1 x[5,12] +1 x[5,13] +1 x[5,14]  = 1
 auto_c_000000006: +1 x[6,0] +1 x[6,1] +1 x[6,2] +1 x[6,3] +1 x[6,4] +1 x[6,5] +1 x[6,6] +1 x[6,7] +1 x[6,8] +1 x[6,9] +1 x[6,10] +1 x[6,11] +1 x[6,12] +1 x[6,13] +1 x[6,14]  = 1
 auto_c_000000007: +1 x[7,0] +1 x[7,1] +1 x[7,2] +1 x[7,3] +1 x[7,4] +1 x[7,5] +1 x[7,6] +1 x[7,7] +1 x[7,8] +1 x[7,9] +1 x[7,10] +1 x[7,11] +1 x[7,12] +1 x[7,13] +1 x[7,14]  = 1
 auto_c_000000008: +1 x[8,0] +1 x[8,1] +1 x[8,2] +1 x[8,3] +1 x[8,4] +1 x[8,5] +1 x[8,6] +1 x[8,7] +1 x[8,8] +1 x[8,9] +1 x[8,10] +1 x[8,11] +1 x[8,12] +1 x[8,13] +1 x[8,14]  = 1
 auto_c_000000009: +1 x[9,0] +1 x[9,1] +1 x[9,2] +1 x[9,3] +1 x[9,4] +1 x[9,5] +1 x[9,6] +1 x[9,7] +1 x[9,8] +1 x[9,9] +1 x[9,10] +1 x[9,11] +1 x[9,12] +1 x[9,13] +1 x[9,14]  = 1
 auto_c_000000010: +1 x[10,0] +1 x[10,1] +1 x[10,2] +1 x[10,3] +1 x[10,4] +1 x[10,5] +1 x[10,6] +1 x[10,7] +1 x[10,8] +1 x[10,9] +1 x[10,10] +1 x[10,11] +1 x[10,12] +1 x[10,13] +1 x[10,14]  = 1
 auto_c_000000011: +1 x[11,0] +1 x[11,1] +1 x[11,2] +1 x[11,3] +1 x[11,4] +1 x[11,5] +1 x[11,6] +1 x[11,7] +1 x[11,8] +1 x[11,9] +1 x[11,10] +1 x[11,11] +1 x[11,12] +1 x[11,13] +1 x[11,14]  = 1
 auto_c_000000012: +1 x[12,0] +1 x[12,1] +1 x[12,2] +1 x[12,3] +1 x[12,4] +1 x[12,5] +1 x[12,6] +1 x[12,7] +1 x[12,8] +1 x[12,9] +1 x[12,10] +1 x[12,11] +1 x[12,12] +1 x[12,13] +1 x[12,14]  = 1
 auto_c_000000013: +1 x[13,0] +1 x[13,1] +1 x[13,2] +1 x[13,3] +1 x[13,4] +1 x[13,5] +1 x[13,6] +1 x[13,7] +1 x[13,8] +1 x[13,9] +1 x[13,10] +1 x[13,11] +1 x[13,12] +1 x[13,13] +1 x[13,14]  = 1
 auto_c_000000014: +1 x[14,0] +1 x[14,1] +1 x[14,2] +1 x[14,3] +1 x[14,4] +1 x[14,5] +1 x[14,6] +1 x[14,7] +1 x[14,8] +1 x[14,9] +1 x[14,10] +1 x[14,11] +1 x[14,12] +1 x[14,13] +1 x[14,14]  = 1
 auto_c_000000015: +1 x[15,0] +1 x[15,1] +1 x[15,2] +1 x[15,3] +1 x[15,4] +1 x[15,5] +1 x[15,6] +1 x[15,7] +1 x[15,8] +1 x[15,9] +1 x[15,10] +1 x[15,11] +1 x[15,12] +1 x[15,13] +1 x[15,14]  = 1
 auto_c_000000016: +1 x[16,0] +1 x[16,1] +1 x[16,2] +1 x[16,3] +1 x[16,4] +1 x[16,5] +1 x[16,6] +1 x[16,7] +1 x[16,8] +1 x[16,9] +1 x[16,10] +1 x[16,11] +1 x[16,12] +1 x[16,13] +1 x[16,14]  = 1
 auto_c_000000017: +1 x[17,0] +1 x[17,1] +1 x[17,2] +1 x[17,3] +1 x[17,4] +1 x[17,5] +1 x[17,6] +1 x[17,7] +1 x[17,8] +1 x[17,9] +1 x[17,10] +1 x[17,11] +1 x[17,12] +1 x[17,13] +1 x[17,14]  = 1
 auto_c_000000018: +1 x[18,0] +1 x[18,1] +1 x[18,2] +1 x[18,3] +1 x[18,4] +1 x[18,5] +1 x[18,6] +1 x[18,7] +1 x[18,8] +1 x[18,9] +1 x[18,10] +1 x[18,11] +1 x[18,12] +1 x[18,13] +1 x[18,14]  = 1
 auto_c_000000019: +1 x[19,0] +1 x[19,1] +1 x[19,2] +1 x[19,3] +1 x[19,4] +1 x[19,5] +1 x[19,6] +1 x[19,7] +1 x[19,8] +1 x[19,9] +1 x[19,10] +1 x[19,11] +1 x[19,12] +1 x[19,13] +1 x[19,14]  = 1
 auto_c_000000020: +1 x[20,0] +1 x[20,1] +1 x[20,2] +1 x[20,3] +1 x[20,4] +1 x[20,5] +1 x[20,6] +1 x[20,7] +1 x[20,8] +1 x[20,9] +1 x[20,10] +1 x[20,11] +1 x[20,12] +1 x[20,13] +1 x[20,14]  = 1
 auto_c_000000021: +1 x[21,0] +1 x[21,1] +1 x[21,2] +1 x[21,3] +1 x[21,4] +1 x[21,5] +1 x[21,6] +1 x[21,7] +1 x[21,8] +1 x[21,9] +1 x[21,10] +1 x[21,11] +1 x[21,12] +1 x[21,13] +1 x[21,14]  = 1
 auto_c_000000022: +1 x[22,0] +1 x[22,1] +1 x[22,2] +1 x[22,3] +1 x[22,4] +1 x[22,5] +1 x[22,6] +1 x[22,7] +1 x[22,8] +1 x[22,9] +1 x[22,10] +1 x[22,11] +1 x[22,12] +1 x[22,13] +1 x[22,14]  = 1
 auto_c_000000023: +1 x[23,0] +1 x[23,1] +1 x[23,2] +1 x[23,3] +1 x[23,4] +1 x[23,5] +1 x[23,6] +1 x[23,7] +1 x[23,8] +1 x[23,9] +1 x[23,10] +1 x[23,11] +1 x[23,12] +1 x[23,13] +1 x[23,14]  = 1
 auto_c_000000024: +1 x[24,0] +1 x[24,1] +1 x[24,2] +1 x[24,3] +1 x[24,4] +1 x[24,5] +1 x[24,6] +1 x[24,7] +1 x[24,8] +1 x[24,9] +1 x[24,10] +1 x[24,11] +1 x[24,12] +1 x[24,13] +1 x[24,14]  = 1
 auto_c_000000025: +1 x[25,0] +1 x[25,1] +1 x[25,2] +1 x[25,3] +1 x[25,4] +1 x[25,5] +1 x[25,6] +1 x[25,7] +1 x[25,8] +1 x[25,9] +1 x[25,10] +1 x[25,11] +1 x[25,12] +1 x[25,13] +1 x[25,14]  = 1
 auto_c_000000026: +1 x[26,0] +1 x[26,1] +1 x[26,2] +1 x[26,3] +1 x[26,4] +1 x[26,5] +1 x[26,6] +1 x[26,7] +1 x[26,8] +1 x[26,9] +1 x[26,10] +1 x[26,11] +1 x[26,12] +1 x[26,13] +1 x[26,14]  = 1
 auto_c_000000027: +1 x[27,0] +1 x[27,1] +1 x[27,2] +1 x[27,3] +1 x[27,4] +1 x[27,5] +1 x[27,6] +1 x[27,7] +1 x[27,8] +1 x[27,9] +1 x[27,10] +1 x[27,11] +1 x[27,12] +1 x[27,13] +1 x[27,14]  = 1
 auto_c_000000028: +1 x[28,0] +1 x[28,1] +1 x[28,2] +1 x[28,3] +1 x[28,4] +1 x[28,5] +1 x[28,6] +1 x[28,7] +1 x[28,8] +1 x[28,9] +1 x[28,10] +1 x[28,11] +1 x[28,12] +1 x[28,13] +1 x[28,14]  = 1
 auto_c_000000029: +1 x[29,0] +1 x[29,1] +1 x[29,2] +1 x[29,3] +1 x[29,4] +1 x[29,5] +1 x[29,6] +1 x[29,7] +1 x[29,8] +1 x[29,9] +1 x[29,10] +1 x[29,11] +1 x[29,12] +1 x[29,13] +1 x[29,14]  = 1
 auto_c_000000030: +10 x[0,0] +18 x[1,0] +15 x[2,0] +27 x[3,0] +26 x[4,0] +20 x[5,0] +28 x[6,0] +26 x[7,0] +16 x[8,0] +16 x[9,0] +25 x[10,0] +24 x[11,0] +22 x[12,0] +29 x[13,0] +28 x[14,0] +11 x[15,0] +21 x[16,0] +10 x[17,0] +14 x[18,0] +18 x[19,0] +10 x[20,0] +18 x[21,0] +10 x[22,0] +17 x[23,0] +27 x[24,0] +26 x[25,0] +12 x[26,0] +24 x[27,0] +24 x[28,0] +26 x[29,0] -42 y[0]  <= 0
 auto_c_000000031: +10 x[0,1] +18 x[1,1] +15 x[2,1] +27 x[3,1] +26 x[4,1] +20 x[5,1] +28 x[6,1] +26 x[7,1] +16 x[8,1] +16 x[9,1] +25 x[10,1] +24 x[11,1] +22 x[12,1] +29 x[13,1] +28 x[14,1] +11 x[15,1] +21 x[16,1] +10 x[17,1] +14 x[18,1] +18 x[19,1] +10 x[20,1] +18 x[21,1] +10 x[22,1] +17 x[23,1] +27 x[24,1] +26 x[25,1] +12 x[26,1] +24 x[27,1] +24 x[28,1] +26 x[29,1] -89 y[1]  <= 0
 auto_c_000000032: +10 x[0,2] +18 x[1,2] +15 x[2,2] +27 x[3,2] +26 x[4,2] +20 x[5,2] +28 x[6,2] +26 x[7,2] +16 x[8,2] +16 x[9,2] +25 x[10,2] +24 x[11,2] +22 x[12,2] +29 x[13,2] +28 x[14,2] +11 x[15,2] +21 x[16,2] +10 x[17,2] +14 x[18,2] +18 x[19,2] +10 x[20,2] +18 x[21,2] +10 x[22,2] +17 x[23,2] +27 x[24,2] +26 x[25,2] +12 x[26,2] +24 x[27,2] +24 x[28,2] +26 x[29,2] -85 y[2]  <= 0
 auto_c_000000033: +10 x[0,3] +18 x[1,3] +15 x[2,3] +27 x[3,3] +26 x[4,3] +20 x[5,3] +28 x[6,3] +26 x[7,3] +16 x[8,3] +16 x[9,3] +25 x[10,3] +24 x[11,3] +22 x[12,3] +29 x[13,3] +28 x[14,3] +11 x[15,3] +21 x[16,3] +10 x[17,3] +14 x[18,3] +18 x[19,3] +10 x[20,3] +18 x[21,3] +10 x[22,3] +17 x[23,3] +27 x[24,3] +26 x[25,3] +12 x[26,3] +24 x[27,3] +24 x[28,3] +26 x[29,3] -78 y[3]  <= 0
 auto_c_000000034: +10 x[0,4] +18 x[1,4] +15 x[2,4] +27 x[3,4] +26 x[4,4] +20 x[5,4] +28 x[6,4] +26 x[7,4] +16 x[8,4] +16 x[9,4] +25 x[10,4] +24 x[11,4] +22 x[12,4] +29 x[13,4] +28 x[14,4] +11 x[15,4] +21 x[16,4] +10 x[17,4] +14 x[18,4] +18 x[19,4] +10 x[20,4] +18 x[21,4] +10 x[22,4] +17 x[23,4] +27 x[24,4] +26 x[25,4] +12 x[26,4] +24 x[27,4] +24 x[28,4] +26 x[29,4] -106 y[4]  <= 0
 auto_c_000000035: +10 x[0,5] +18 x[1,5] +15 x[2,5] +27 x[3,5] +26 x[4,5] +20 x[5,5] +28 x[6,5] +26 x[7,5] +16 x[8,5] +16 x[9,5] +25 x[10,5] +24 x[11,5] +22 x[12,5] +29 x[13,5] +28 x[14,5] +11 x[15,5] +21 x[16,5] +10 x[17,5] +14 x[18,5] +18 x[19,5] +10 x[20,5] +18 x[21,5] +10 x[22,5] +17 x[23,5] +27 x[24,5] +26 x[25,5] +12 x[26,5] +24 x[27,5] +24 x[28,5] +26 x[29,5] -102 y[5]  <= 0
 auto_c_000000036: +10 x[0,6] +18 x[1,6] +15 x[2,6] +27 x[3,6] +26 x[4,6] +20 x[5,6] +28 x[6,6] +26 x[7,6] +16 x[8,6] +16 x[9,6] +25 x[10,6] +24 x[11,6] +22 x[12,6] +29 x[13,6] +28 x[14,6] +11 x[15,6] +21 x[16,6] +10 x[17,6] +14 x[18,6] +18 x[19,6] +10 x[20,6] +18 x[21,6] +10 x[22,6] +17 x[23,6] +27 x[24,6] +26 x[25,6] +12 x[26,6] +24 x[27,6] +24 x[28,6] +26 x[29,6] -27 y[6]  <= 0
 auto_c_000000037: +10 x[0,7] +18 x[1,7] +15 x[2,7] +27 x[3,7] +26 x[4,7] +20 x[5,7] +28 x[6,7] +26 x[7,7] +16 x[8,7] +16 x[9,7] +25 x[10,7] +24 x[11,7] +22 x[12,7] +29 x[13,7] +28 x[14,7] +11 x[15,7] +21 x[16,7] +10 x[17,7] +14 x[18,7] +18 x[19,7] +10 x[20,7] +18 x[21,7] +10 x[22,7] +17 x[23,7] +27 x[24,7] +26 x[25,7] +12 x[26,7] +24 x[27,7] +24 x[28,7] +26 x[29,7] -84 y[7]  <= 0
 auto_c_000000038: +10 x[0,8] +18 x[1,8] +15 x[2,8] +27 x[3,8] +26 x[4,8] +20 x[5,8] +28 x[6,8] +26 x[7,8] +16 x[8,8] +16 x[9,8] +25 x[10,8] +24 x[11,8] +22 x[12,8] +29 x[13,8] +28 x[14,8] +11 x[15,8] +21 x[16,8] +10 x[17,8] +14 x[18,8] +18 x[19,8] +10 x[20,8] +18 x[21,8] +10 x[22,8] +17 x[23,8] +27 x[24,8] +26 x[25,8] +12 x[26,8] +24 x[27,8] +24 x[28,8] +26 x[29,8] -74 y[8]  <= 0
 auto_c_000000039: +10 x[0,9] +18 x[1,9] +15 x[2,9] +27 x[3,9] +26 x[4,9] +20 x[5,9] +28 x[6,9] +26 x[7,9] +16 x[8,9] +16 x[9,9] +25 x[10,9] +24 x[11,9] +22 x[12,9] +29 x[13,9] +28 x[14,9] +11 x[15,9] +21 x[16,9] +10 x[17,9] +14 x[18,9] +18 x[19,9] +10 x[20,9] +18 x[21,9] +10 x[22,9] +17 x[23,9] +27 x[24,9] +26 x[25,9] +12 x[26,9] +24 x[27,9] +24 x[28,9] +26 x[29,9] -65 y[9]  <= 0
 auto_c_000000040: +10 x[0,10] +18 x[1,10] +15 x[2,10] +27 x[3,10] +26 x[4,10] +20 x[5,10] +28 x[6,10] +26 x[7,10] +16 x[8,10] +16 x[9,10] +25 x[10,10] +24 x[11,10] +22 x[12,10] +29 x[13,10] +28 x[14,10] +11 x[15,10] +21 x[16,10] +10 x[17,10] +14 x[18,10] +18 x[19,10] +10 x[20,10] +18 x[21,10] +10 x[22,10] +17 x[23,10] +27 x[24,10] +26 x[25,10] +12 x[26,10] +24 x[27,10] +24 x[28,10] +26 x[29,10] -75 y[10]  <= 0
 auto_c_000000041: +10 x[0,11] +18 x[1,11] +15 x[2,11] +27 x[3,11] +26 x[4,11] +20 x[5,11] +28 x[6,11] +26 x[7,11] +16 x[8,11] +16 x[9,11] +25 x[10,11] +24 x[11,11] +22 x[12,11] +29 x[13,11] +28 x[14,11] +11 x[15,11] +21 x[16,11] +10 x[17,11] +14 x[18,11] +18 x[19,11] +10 x[20,11] +18 x[21,11] +10 x[22,11] +17 x[23,11] +27 x[24,11] +26 x[25,11] +12 x[26,11] +24 x[27,11] +24 x[28,11] +26 x[29,11] -62 y[11]  <= 0
 auto_c_000000042: +10 x[0,12] +18 x[1,12] +15 x[2,12] +27 x[3,12] +26 x[4,12] +20 x[5,12] +28 x[6,12] +26 x[7,12] +16 x[8,12] +16 x[9,12] +25 x[10,12] +24 x[11,12] +22 x[12,12] +29 x[13,12] +28 x[14,12] +11 x[15,12] +21 x[16,12] +10 x[17,12] +14 x[18,12] +18 x[19,12] +10 x[20,12] +18 x[21,12] +10 x[22,12] +17 x[23,12] +27 x[24,12] +26 x[25,12] +12 x[26,12] +24 x[27,12] +24 x[28,12] +26 x[29,12] -65 y[12]  <= 0
 auto_c_000000043: +10 x[0,13] +18 x[1,13] +15 x[2,13] +27 x[3,13] +26 x[4,13] +20 x[5,13] +28 x[6,13] +26 x[7,13] +16 x[8,13] +16 x[9,13] +25 x[10,13] +24 x[11,13] +22 x[12,13] +29 x[13,13] +28 x[14,13] +11 x[15,13] +21 x[16,13] +10 x[17,13] +14 x[18,13] +18 x[19,13] +10 x[20,13] +18 x[21,13] +10 x[22,13] +17 x[23,13] +27 x[24,13] +26 x[25,13] +12 x[26,13] +24 x[27,13] +24 x[28,13] +26 x[29,13] -94 y[13]  <= 0
 auto_c_000000044: +10 x[0,14] +18 x[1,14] +15 x[2,14] +27 x[3,14] +26 x[4,14] +20 x[5,14] +28 x[6,14] +26 x[7,14] +16 x[8,14] +16 x[9,14] +25 x[10,14] +24 x[11,14] +22 x[12,14] +29 x[13,14] +28 x[14,14] +11 x[15,14] +21 x[16,14] +10 x[17,14] +14 x[18,14] +18 x[19,14] +10 x[20,14] +18 x[21,14] +10 x[22,14] +17 x[23,14] +27 x[24,14] +26 x[25,14] +12 x[26,14] +24 x[27,14] +24 x[28,14] +26 x[29,14] -60 y[14]  <= 0
Bounds
 0 <= x[0,0] <= 1
 0 <= x[1,0] <= 1
 0 <= x[2,0] <= 1
 0 <= x[3,0] <= 1
 0 <= x[4,0] <= 1
 0 <= x[5,0] <= 1
 0 <= x[6,0] <= 1
 0 <= x[7,0] <= 1
 0 <= x[8,0] <= 1
 0 <= x[9,0] <= 1
 0 <= x[10,0] <= 1
 0 <= x[11,0] <= 1
 0 <= x[12,0] <= 1
 0 <= x[13,0] <= 1
 0 <= x[14,0] <= 1
 0 <= x[15,0] <= 1
 0 <= x[16,0] <= 1
 0 <= x[17,0] <= 1
 0 <= x[18,0] <= 1
 0 <= x[19,0] <= 1
 0 <= x[20,0] <= 1
 0 <= x[21,0] <= 1
 0 <= x[22,0] <= 1
 0 <= x[23,0] <= 1
 0 <= x[24,0] <= 1
 0 <= x[25,0] <= 1
 0 <= x[26,0] <= 1
 0 <= x[27,0] <= 1
 0 <= x[28,0] <= 1
 0 <= x[29,0] <= 1
 0 <= x[0,1] <= 1
 0 <= x[1,1] <= 1
 0 <= x[2,1] <= 1
 0 <= x[3,1] <= 1
 0 <= x[4,1] <= 1
 0 <= x[5,1] <= 1
 0 <= x[6,1] <= 1
 0 <= x[7,1] <= 1
 0 <= x[8,1] <= 1
 0 <= x[9,1] <= 1
 0 <= x[10,1] <= 1
 0 <= x[11,1] <= 1
 0 <= x[12,1] <= 1
 0 <= x[13,1] <= 1
 0 <= x[14,1] <= 1
 0 <= x[15,1] <= 1
 0 <= x[16,1] <= 1
 0 <= x[17,1] <= 1
 0 <= x[18,1] <= 1
 0 <= x[19,1] <= 1
 0 <= x[20,1] <= 1
 0 <= x[21,1] <= 1
 0 <= x[22,1] <= 1
 0 <= x[23,1] <= 1
 0 <= x[24,1] <= 1
 0 <= x[25,1] <= 1
 0 <= x[26,1] <= 1
 0 <= x[27,1] <= 1
 0 <= x[28,1] <= 1
 0 <= x[29,1] <= 1
 0 <= x[0,2] <= 1
 0 <= x[1,2] <= 1
 0 <= x[2,2] <= 1
 0 <= x[3,2] <= 1
 0 <= x[4,2] <= 1
 0 <= x[5,2] <= 1
 0 <= x[6,2] <= 1
 0 <= x[7,2] <= 1
 0 <= x[8,2] <= 1
 0 <= x[9,2] <= 1
 0 <= x[10,2] <= 1
 0 <= x[11,2] <= 1
 0 <= x[12,2] <= 1
 0 <= x[13,2] <= 1
 0 <= x[14,2] <= 1
 0 <= x[15,2] <= 1
 0 <= x[16,2] <= 1
 0 <= x[17,2] <= 1
 0 <= x[18,2] <= 1
 0 <= x[19,2] <= 1
 0 <= x[20,2] <= 1
 0 <= x[21,2] <= 1
 0 <= x[22,2] <= 1
 0 <= x[23,2] <= 1
 0 <= x[24,2] <= 1
 0 <= x[25,2] <= 1
 0 <= x[26,2] <= 1
 0 <= x[27,2] <= 1
 0 <= x[28,2] <= 1
 0 <= x[29,2] <= 1
 0 <= x[0,3] <= 1
 0 <= x[1,3] <= 1
 0 <= x[2,3] <= 1
 0 <= x[3,3] <= 1
 0 <= x[4,3] <= 1
 0 <= x[5,3] <= 1
 0 <= x[6,3] <= 1
 0 <= x[7,3] <= 1
 0 <= x[8,3] <= 1
 0 <= x[9,3] <= 1
 0 <= x[10,3] <= 1
 0 <= x[11,3] <= 1
 0 <= x[12,3] <= 1
 0 <= x[13,3] <= 1
 0 <= x[14,3] <= 1
 0 <= x[15,3] <= 1
 0 <= x[16,3] <= 1
 0 <= x[17,3] <= 1
 0 <= x[18,3] <= 1
 0 <= x[19,3] <= 1
 0 <= x[20,3] <= 1
 0 <= x[21,3] <= 1
 0 <= x[22,3] <= 1
 0 <= x[23,3] <= 1
 0 <= x[24,3] <= 1
 0 <= x[25,3] <= 1
 0 <= x[26,3] <= 1
 0 <= x[27,3] <= 1
 0 <= x[28,3] <= 1
 0 <= x[29,3] <= 1
 0 <= x[0,4] <= 1
 0 <= x[1,4] <= 1
 0 <= x[2,4] <= 1
 0 <= x[3,4] <= 1
 0 <= x[4,4] <= 1
 0 <= x[5,4] <= 1
 0 <= x[6,4] <= 1
 0 <= x[7,4] <= 1
 0 <= x[8,4] <= 1
 0 <= x[9,4] <= 1
 0 <= x[10,4] <= 1
 0 <= x[11,4] <= 1
 0 <= x[12,4] <= 1
 0 <= x[13,4] <= 1
 0 <= x[14,4] <= 1
 0 <= x[15,4] <= 1
 0 <= x[16,4] <= 1
 0 <= x[17,4] <= 1
 0 <= x[18,4] <= 1
 0 <= x[19,4] <= 1
 0 <= x[20,4] <= 1
 0 <= x[21,4] <= 1
 0 <= x[22,4] <= 1
 0 <= x[23,4] <= 1
 0 <= x[24,4] <= 1
 0 <= x[25,4] <= 1
 0 <= x[26,4] <= 1
 0 <= x[27,4] <= 1
 0 <= x[28,4] <= 1
 0 <= x[29,4] <= 1
 0 <= x[0,5] <= 1
 0 <= x[1,5] <= 1
 0 <= x[2,5] <= 1
 0 <= x[3,5] <= 1
 0 <= x[4,5] <= 1
 0 <= x[5,5] <= 1
 0 <= x[6,5] <= 1
 0 <= x[7,5] <= 1
 0 <= x[8,5] <= 1
 0 <= x[9,5] <= 1
 0 <= x[10,5] <= 1
 0 <= x[11,5] <= 1
 0 <= x[12,5] <= 1
 0 <= x[13,5] <= 1
 0 <= x[14,5] <= 1
 0 <= x[15,5] <= 1
 0 <= x[16,5] <= 1
 0 <= x[17,5] <= 1
 0 <= x[18,5] <= 1
 0 <= x[19,5] <= 1
 0 <= x[20,5] <= 1
 0 <= x[21,5] <= 1
 0 <= x[22,5] <= 1
 0 <= x[23,5] <= 1
 0 <= x[24,5] <= 1
 0 <= x[25,5] <= 1
 0 <= x[26,5] <= 1
 0 <= x[27,5] <= 1
 0 <= x[28,5] <= 1
 0 <= x[29,5] <= 1
 0 <= x[0,6] <= 1
 0 <= x[1,6] <= 1
 0 <= x[2,6] <= 1
 0 <= x[3,6] <= 1
 0 <= x[4,6] <= 1
 0 <= x[5,6] <= 1
 0 <= x[6,6] <= 1
 0 <= x[7,6] <= 1
 0 <= x[8,6] <= 1
 0 <= x[9,6] <= 1
 0 <= x[10,6] <= 1
 0 <= x[11,6] <= 1
 0 <= x[12,6] <= 1
 0 <= x[13,6] <= 1
 0 <= x[14,6] <= 1
 0 <= x[15,6] <= 1
 0 <= x[16,6] <= 1
 0 <= x[17,6] <= 1
 0 <= x[18,6] <= 1
 0 <= x[19,6] <= 1
 0 <= x[20,6] <= 1
 0 <= x[21,6] <= 1
 0 <= x[22,6] <= 1
 0 <= x[23,6] <= 1
 0 <= x[24,6] <= 1
 0 <= x[25,6] <= 1
 0 <= x[26,6] <= 1
 0 <= x[27,6] <= 1
 0 <= x[28,6] <= 1
 0 <= x[29,6] <= 1
 0 <= x[0,7] <= 1
 0 <= x[1,7] <= 1
 0 <= x[2,7] <= 1
 0 <= x[3,7] <= 1
 0 <= x[4,7] <= 1
 0 <= x[5,7] <= 1
 0 <= x[6,7] <= 1
 0 <= x[7,7] <= 1
 0 <= x[8,7] <= 1
 0 <= x[9,7] <= 1
 0 <= x[10,7] <= 1
 0 <= x[11,7] <= 1
 0 <= x[12,7] <= 1
 0 <= x[13,7] <= 1
 0 <= x[14,7] <= 1
 0 <= x[15,7] <= 1
 0 <= x[16,7] <= 1
 0 <= x[17,7] <= 1
 0 <= x[18,7] <= 1
 0 <= x[19,7] <= 1
 0 <= x[20,7] <= 1
 0 <= x[21,7] <= 1
 0 <= x[22,7] <= 1
 0 <= x[23,7] <= 1
 0 <= x[24,7] <= 1
 0 <= x[25,7] <= 1
 0 <= x[26,7] <= 1
 0 <= x[27,7] <= 1
 0 <= x[28,7] <= 1
 0 <= x[29,7] <= 1
 0 <= x[0,8] <= 1
 0 <= x[1,8] <= 1
 0 <= x[2,8] <= 1
 0 <= x[3,8] <= 1
 0 <= x[4,8] <= 1
 0 <= x[5,8] <= 1
 0 <= x[6,8] <= 1
 0 <= x[7,8] <= 1
 0 <= x[8,8] <= 1
 0 <= x[9,8] <= 1
 0 <= x[10,8] <= 1
 0 <= x[11,8] <= 1
 0 <= x[12,8] <= 1
 0 <= x[13,8] <= 1
 0 <= x[14,8] <= 1
 0 <= x[15,8] <= 1
 0 <= x[16,8] <= 1
 0 <= x[17,8] <= 1
 0 <= x[18,8] <= 1
 0 <= x[19,8] <= 1
 0 <= x[20,8] <= 1
 0 <= x[21,8] <= 1
 0 <= x[22,8] <= 1
 0 <= x[23,8] <= 1
 0 <= x[24,8] <= 1
 0 <= x[25,8] <= 1
 0 <= x[26,8] <= 1
 0 <= x[27,8] <= 1
 0 <= x[28,8] <= 1
 0 <= x[29,8] <= 1
 0 <= x[0,9] <= 1
 0 <= x[1,9] <= 1
 0 <= x[2,9] <= 1
 0 <= x[3,9] <= 1
 0 <= x[4,9] <= 1
 0 <= x[5,9] <= 1
 0 <= x[6,9] <= 1
 0 <= x[7,9] <= 1
 0 <= x[8,9] <= 1
 0 <= x[9,9] <= 1
 0 <= x[10,9] <= 1
 0 <= x[11,9] <= 1
 0 <= x[12,9] <= 1
 0 <= x[13,9] <= 1
 0 <= x[14,9] <= 1
 0 <= x[15,9] <= 1
 0 <= x[16,9] <= 1
 0 <= x[17,9] <= 1
 0 <= x[18,9] <= 1
 0 <= x[19,9] <= 1
 0 <= x[20,9] <= 1
 0 <= x[21,9] <= 1
 0 <= x[22,9] <= 1
 0 <= x[23,9] <= 1
 0 <= x[24,9] <= 1
 0 <= x[25,9] <= 1
 0 <= x[26,9] <= 1
 0 <= x[27,9] <= 1
 0 <= x[28,9] <= 1
 0 <= x[29,9] <= 1
 0 <= x[0,10] <= 1
 0 <= x[1,10] <= 1
 0 <= x[2,10] <= 1
 0 <= x[3,10] <= 1
 0 <= x[4,10] <= 1
 0 <= x[5,10] <= 1
 0 <= x[6,10] <= 1
 0 <= x[7,10] <= 1
 0 <= x[8,10] <= 1
 0 <= x[9,10] <= 1
 0 <= x[10,10] <= 1
 0 <= x[11,10] <= 1
 0 <= x[12,10] <= 1
 0 <= x[13,10] <= 1
 0 <= x[14,10] <= 1
 0 <= x[15,10] <= 1
 0 <= x[16,10] <= 1
 0 <= x[17,10] <= 1
 0 <= x[18,10] <= 1
 0 <= x[19,10] <= 1
 0 <= x[20,10] <= 1
 0 <= x[21,10] <= 1
 0 <= x[22,10] <= 1
 0 <= x[23,10] <= 1
 0 <= x[24,10] <= 1
 0 <= x[25,10] <= 1
 0 <= x[26,10] <= 1
 0 <= x[27,10] <= 1
 0 <= x[28,10] <= 1
 0 <= x[29,10] <= 1
 0 <= x[0,11] <= 1
 0 <= x[1,11] <= 1
 0 <= x[2,11] <= 1
 0 <= x[3,11] <= 1
 0 <= x[4,11] <= 1
 0 <= x[5,11] <= 1
 0 <= x[6,11] <= 1
 0 <= x[7,11] <= 1
 0 <= x[8,11] <= 1
 0 <= x[9,11] <= 1
 0 <= x[10,11] <= 1
 0 <= x[11,11] <= 1
 0 <= x[12,11] <= 1
 0 <= x[13,11] <= 1
 0 <= x[14,11] <= 1
 0 <= x[15,11] <= 1
 0 <= x[16,11] <= 1
 0 <= x[17,11] <= 1
 0 <= x[18,11] <= 1
 0 <= x[19,11] <= 1
 0 <= x[20,11] <= 1
 0 <= x[21,11] <= 1
 0 <= x[22,11] <= 1
 0 <= x[23,11] <= 1
 0 <= x[24,11] <= 1
 0 <= x[25,11] <= 1
 0 <= x[26,11] <= 1
 0 <= x[27,11] <= 1
 0 <= x[28,11] <= 1
 0 <= x[29,11] <= 1
 0 <= x[0,12] <= 1
 0 <= x[1,12] <= 1
 0 <= x[2,12] <= 1
 0 <= x[3,12] <= 1
 0 <= x[4,12] <= 1
 0 <= x[5,12] <= 1
 0 <= x[6,12] <= 1
 0 <= x[7,12] <= 1
 0 <= x[8,12] <= 1
 0 <= x[9,12] <= 1
 0 <= x[10,12] <= 1
 0 <= x[11,12] <= 1
 0 <= x[12,12] <= 1
 0 <= x[13,12] <= 1
 0 <= x[14,12] <= 1
 0 <= x[15,12] <= 1
 0 <= x[16,12] <= 1
 0 <= x[17,12] <= 1
 0 <= x[18,12] <= 1
 0 <= x[19,12] <= 1
 0 <= x[20,12] <= 1
 0 <= x[21,12] <= 1
 0 <= x[22,12] <= 1
 0 <= x[23,12] <= 1
 0 <= x[24,12] <= 1
 0 <= x[25,12] <= 1
 0 <= x[26,12] <= 1
 0 <= x[27,12] <= 1
 0 <= x[28,12] <= 1
 0 <= x[29,12] <= 1
 0 <= x[0,13] <= 1
 0 <= x[1,13] <= 1
 0 <= x[2,13] <= 1
 0 <= x[3,13] <= 1
 0 <= x[4,13] <= 1
 0 <= x[5,13] <= 1
 0 <= x[6,13] <= 1
 0 <= x[7,13] <= 1
 0 <= x[8,13] <= 1
 0 <= x[9,13] <= 1
 0 <= x[10,13] <= 1
 0 <= x[11,13] <= 1
 0 <= x[12,13] <= 1
 0 <= x[13,13] <= 1
 0 <= x[14,13] <= 1
 0 <= x[15,13] <= 1
 0 <= x[16,13] <= 1
 0 <= x[17,13] <= 1
 0 <= x[18,13] <= 1
 0 <= x[19,13] <= 1
 0 <= x[20,13] <= 1
 0 <= x[21,13] <= 1
 0 <= x[22,13] <= 1
 0 <= x[23,13] <= 1
 0 <= x[24,13] <= 1
 0 <= x[25,13] <= 1
 0 <= x[26,13] <= 1
 0 <= x[27,13] <= 1
 0 <= x[28,13] <= 1
 0 <= x[29,13] <= 1
 0 <= x[0,14] <= 1
 0 <= x[1,14] <= 1
 0 <= x[2,14] <= 1
 0 <= x[3,14] <= 1
 0 <= x[4,14] <= 1
 0 <= x[5,14] <= 1
 0 <= x[6,14] <= 1
 0 <= x[7,14] <= 1
 0 <= x[8,14] <= 1
 0 <= x[9,14] <= 1
 0 <= x[10,14] <= 1
 0 <= x[11,14] <= 1
 0 <= x[12,14] <= 1
 0 <= x[13,14] <= 1
 0 <= x[14,14] <= 1
 0 <= x[15,14] <= 1
 0 <= x[16,14] <= 1
 0 <= x[17,14] <= 1
 0 <= x[18,14] <= 1
 0 <= x[19,14] <= 1
 0 <= x[20,14] <= 1
 0 <= x[21,14] <= 1
 0 <= x[22,14] <= 1
 0 <= x[23,14] <= 1
 0 <= x[24,14] <= 1
 0 <= x[25,14] <= 1
 0 <= x[26,14] <= 1
 0 <= x[27,14] <= 1
 0 <= x[28,14] <= 1
 0 <= x[29,14] <= 1
 0 <= y[0] <= 1
 0 <= y[1] <= 1
 0 <= y[2] <= 1
 0 <= y[3] <= 1
 0 <= y[4] <= 1
 0 <= y[5] <= 1
 0 <= y[6] <= 1
 0 <= y[7] <= 1
 0 <= y[8] <= 1
 0 <= y[9] <= 1
 0 <= y[10] <= 1
 0 <= y[11] <= 1
 0 <= y[12] <= 1
 0 <= y[13] <= 1
 0 <= y[14] <= 1
Binaries
 x[0,0]
 x[1,0]
 x[2,0]
 x[3,0]
 x[4,0]
 x[5,0]
 x[6,0]
 x[7,0]
 x[8,0]
 x[9,0]
 x[10,0]
 x[11,0]
 x[12,0]
 x[13,0]
 x[14,0]
 x[15,0]
 x[16,0]
 x[17,0]
 x[18,0]
 x[19,0]
 x[20,0]
 x[21,0]
 x[22,0]
 x[23,0]
 x[24,0]
 x[25,0]
 x[26,0]
 x[27,0]
 x[28,0]
 x[29,0]
 x[0,1]
 x[1,1]
 x[2,1]
 x[3,1]
 x[4,1]
 x[5,1]
 x[6,1]
 x[7,1]
 x[8,1]
 x[9,1]
 x[10,1]
 x[11,1]
 x[12,1]
 x[13,1]
 x[14,1]
 x[15,1]
 x[16,1]
 x[17,1]
 x[18,1]
 x[19,1]
 x[20,1]
 x[21,1]
 x[22,1]
 x[23,1]
 x[24,1]
 x[25,1]
 x[26,1]
 x[27,1]
 x[28,1]
 x[29,1]
 x[0,2]
 x[1,2]
 x[2,2]
 x[3,2]
 x[4,2]
 x[5,2]
 x[6,2]
 x[7,2]
 x[8,2]
 x[9,2]
 x[10,2]
 x[11,2]
 x[12,2]
 x[13,2]
 x[14,2]
 x[15,2]
 x[16,2]
 x[17,2]
 x[18,2]
 x[19,2]
 x[20,2]
 x[21,2]
 x[22,2]
 x[23,2]
 x[24,2]
 x[25,2]
 x[26,2]
 x[27,2]
 x[28,2]
 x[29,2]
 x[0,3]
 x[1,3]
 x[2,3]
 x[3,3]
 x[4,3]
 x[5,3]
 x[6,3]
 x[7,3]
 x[8,3]
 x[9,3]
 x[10,3]
 x[11,3]
 x[12,3]
 x[13,3]
 x[14,3]
 x[15,3]
 x[16,3]
 x[17,3]
 x[18,3]
 x[19,3]
 x[20,3]
 x[21,3]
 x[22,3]
 x[23,3]
 x[24,3]
 x[25,3]
 x[26,3]
 x[27,3]
 x[28,3]
 x[29,3]
 x[0,4]
 x[1,4]
 x[2,4]
 x[3,4]
 x[4,4]
 x[5,4]
 x[6,4]
 x[7,4]
 x[8,4]
 x[9,4]
 x[10,4]
 x[11,4]
 x[12,4]
 x[13,4]
 x[14,4]
 x[15,4]
 x[16,4]
 x[17,4]
 x[18,4]
 x[19,4]
 x[20,4]
 x[21,4]
 x[22,4]
 x[23,4]
 x[24,4]
 x[25,4]
 x[26,4]
 x[27,4]
 x[28,4]
 x[29,4]
 x[0,5]
 x[1,5]
 x[2,5]
 x[3,5]
 x[4,5]
 x[5,5]
 x[6,5]
 x[7,5]
 x[8,5]
 x[9,5]
 x[10,5]
 x[11,5]
 x[12,5]
 x[13,5]
 x[14,5]
 x[15,5]
 x[16,5]
 x[17,5]
 x[18,5]
 x[19,5]
 x[20,5]
 x[21,5]
 x[22,5]
 x[23,5]
 x[24,5]
 x[25,5]
 x[26,5]
 x[27,5]
 x[28,5]
 x[29,5]
 x[0,6]
 x[1,6]
 x[2,6]
 x[3,6]
 x[4,6]
 x[5,6]
 x[6,6]
 x[7,6]
 x[8,6]
 x[9,6]
 x[10,6]
 x[11,6]
 x[12,6]
 x[13,6]
 x[14,6]
 x[15,6]
 x[16,6]
 x[17,6]
 x[18,6]
 x[19,6]
 x[20,6]
 x[21,6]
 x[22,6]
 x[23,6]
 x[24,6]
 x[25,6]
 x[26,6]
 x[27,6]
 x[28,6]
 x[29,6]
 x[0,7]
 x[1,7]
 x[2,7]
 x[3,7]
 x[4,7]
 x[5,7]
 x[6,7]
 x[7,7]
 x[8,7]
 x[9,7]
 x[10,7]
 x[11,7]
 x[12,7]
 x[13,7]
 x[14,7]
 x[15,7]
 x[16,7]
 x[17,7]
 x[18,7]
 x[19,7]
 x[20,7]
 x[21,7]
 x[22,7]
 x[23,7]
 x[24,7]
 x[25,7]
 x[26,7]
 x[27,7]
 x[28,7]
 x[29,7]
 x[0,8]
 x[1,8]
 x[2,8]
 x[3,8]
 x[4,8]
 x[5,8]
 x[6,8]
 x[7,8]
 x[8,8]
 x[9,8]
 x[10,8]
 x[11,8]
 x[12,8]
 x[13,8]
 x[14,8]
 x[15,8]
 x[16,8]
 x[17,8]
 x[18,8]
 x[19,8]
 x[20,8]
 x[21,8]
 x[22,8]
 x[23,8]
 x[24,8]
 x[25,8]
 x[26,8]
 x[27,8]
 x[28,8]
 x[29,8]
 x[0,9]
 x[1,9]
 x[2,9]
 x[3,9]
 x[4,9]
 x[5,9]
 x[6,9]
 x[7,9]
 x[8,9]
 x[9,9]
 x[10,9]
 x[11,9]
 x[12,9]
 x[13,9]
 x[14,9]
 x[15,9]
 x[16,9]
 x[17,9]
 x[18,9]
 x[19,9]
 x[20,9]
 x[21,9]
 x[22,9]
 x[23,9]
 x[24,9]
 x[25,9]
 x[26,9]
 x[27,9]
 x[28,9]
 x[29,9]
 x[0,10]
 x[1,10]
 x[2,10]
 x[3,10]
 x[4,10]
 x[5,10]
 x[6,10]
 x[7,10]
 x[8,10]
 x[9,10]
 x[10,10]
 x[11,10]
 x[12,10]
 x[13,10]
 x[14,10]
 x[15,10]
 x[16,10]
 x[17,10]
 x[18,10]
 x[19,10]
 x[20,10]
 x[21,10]
 x[22,10]
 x[23,10]
 x[24,10]
 x[25,10]
 x[26,10]
 x[27,10]
 x[28,10]
 x[29,10]
 x[0,11]
 x[1,11]
 x[2,11]
 x[3,11]
 x[4,11]
 x[5,11]
 x[6,11]
 x[7,11]
 x[8,11]
 x[9,11]
 x[10,11]
 x[11,11]
 x[12,11]
 x[13,11]
 x[14,11]
 x[15,11]
 x[16,11]
 x[17,11]
 x[18,11]
 x[19,11]
 x[20,11]
 x[21,11]
 x[22,11]
 x[23,11]
 x[24,11]
 x[25,11]
 x[26,11]
 x[27,11]
 x[28,11]
 x[29,11]
 x[0,12]
 x[1,12]
 x[2,12]
 x[3,12]
 x[4,12]
 x[5,12]
 x[6,12]
 x[7,12]
 x[8,12]
 x[9,12]
 x[10,12]
 x[11,12]
 x[12,12]
 x[13,12]
 x[14,12]
 x[15,12]
 x[16,12]
 x[17,12]
 x[18,12]
 x[19,12]
 x[20,12]
 x[21,12]
 x[22,12]
 x[23,12]
 x[24,12]
 x[25,12]
 x[26,12]
 x[27,12]
 x[28,12]
 x[29,12]
 x[0,13]
 x[1,13]
 x[2,13]
 x[3,13]
 x[4,13]
 x[5,13]
 x[6,13]
 x[7,13]
 x[8,13]
 x[9,13]
 x[10,13]
 x[11,13]
 x[12,13]
 x[13,13]
 x[14,13]
 x[15,13]
 x[16,13]
 x[17,13]
 x[18,13]
 x[19,13]
 x[20,13]
 x[21,13]
 x[22,13]
 x[23,13]
 x[24,13]
 x[25,13]
 x[26,13]
 x[27,13]
 x[28,13]
 x[29,13]
 x[0,14]
 x[1,14]
 x[2,14]
 x[3,14]
 x[4,14]
 x[5,14]
 x[6,14]
 x[7,14]
 x[8,14]
 x[9,14]
 x[10,14]
 x[11,14]
 x[12,14]
 x[13,14]
 x[14,14]
 x[15,14]
 x[16,14]
 x[17,14]
 x[18,14]
 x[19,14]
 x[20,14]
 x[21,14]
 x[22,14]
 x[23,14]
 x[24,14]
 x[25,14]
 x[26,14]
 x[27,14]
 x[28,14]
 x[29,14]
 y[0]
 y[1]
 y[2]
 y[3]
 y[4]
 y[5]
 y[6]
 y[7]
 y[8]
 y[9]
 y[10]
 y[11]
 y[12]
 y[13]
 y[14]
End
